\ This file was automatically generated by Zimpl
\ set a := {1 to 3};
\ set d := {1, 2};
\ set da := d * a;
\ param Q[a] := <1> 8, <2> 15, <3> 12;
\ param T[a] := <1> 45, <2> 7, <3> 4;
\ param DA[da] :=          <1,1> 23, <1,2>  5, <1,3> 1.4,         <2,1> 58, <2,2> 10, <2,3> 3.8;
\ param C[d] := <1> 150, <2> 100;
\ var X[da] integer >= 0;
\ minimize custo :      sum <dx, ax> in da :  X[dx, ax] * DA[dx, ax];
\ subto c1 :      forall <dx> in d :         sum <ax> in a :             X[dx, ax] * T[ax] >= C[dx];
\ subto c2:      forall <ax> in a :         sum <dx> in d :             X[dx, ax] <= Q[ax];
\Problem name: file
Minimize
 custo:  +23 X#1#1 +5 X#1#2 +1.4 X#1#3 +58 X#2#1 +10 X#2#2 +3.8 X#2#3
 
Subject to
 c1_1:
  +4 X#1#3 +7 X#1#2 +45 X#1#1 >= 150
 c1_2:
  +4 X#2#3 +7 X#2#2 +45 X#2#1 >= 100
 c2_1:
  + X#2#1 + X#1#1 <= 8
 c2_2:
  + X#2#2 + X#1#2 <= 15
 c2_3:
  + X#2#3 + X#1#3 <= 12
Bounds
 0 <= X#1#1 <= +inf
 0 <= X#1#2 <= +inf
 0 <= X#1#3 <= +inf
 0 <= X#2#1 <= +inf
 0 <= X#2#2 <= +inf
 0 <= X#2#3 <= +inf
General
 X#1#1
 X#1#2
 X#1#3
 X#2#1
 X#2#2
 X#2#3
End
